
--- Job bchfcnet.gms Start 02/08/22 17:06:55 34.3.0 rac355f3 WEX-WEI x86 64bit/MS Windows
--- Applying:
    C:\GAMS\34\gmsprmNT.txt
--- GAMS Parameters defined
    Input C:\Users\dekhi\Desktop\gamsworld\FCNetLib\test\bchfcnet.gms
    PageSize 0
    ScrDir C:\Users\dekhi\Desktop\gamsworld\FCNetLib\test\225a\
    SysDir C:\GAMS\34\
    LogOption 3
    ErrMsg 1
    ErrorLog 99
    IDE 1
    ResLim 3600
    LstTitleLeftAligned 1
Licensee: Eval License                                   S211214|0002AW-GEN
          Ostfalia Hochschule fuer angewandte Wissenschaften        DCE1645
          C:\Users\dekhi\Documents\GAMS\gamslice.txt
          License Admin: Mohamed Ali Dekhil, dekhil.medali@gmail.com       
          Evaluation license: Not for commercial or production use
GAMS 34.3.0   Copyright (C) 1987-2021 GAMS Development. All rights reserved
--- Starting compilation
--- bchfcnet.gms(34) 2 Mb
--- . decl.gms(15) 2 Mb
--- bchfcnet.gms(38) 2 Mb
--- . k15x420.inc(879) 3 Mb
--- bchfcnet.gms(67) 3 Mb
--- . equs.gms(20) 3 Mb
--- bchfcnet.gms(97) 3 Mb
--- call rm -f bchout_i.gdx startcut.txt startheur.txt cuthist.gdx agap.txt rgap.txt cntfail.txt
--- bchfcnet.gms(118) 3 Mb
--- Starting execution: elapsed 0:00:00.091
--- bchfcnet.gms(937) 4 Mb
--- GDX File (execute_unload) C:\Users\dekhi\Desktop\gamsworld\FCNetLib\test\net.gdx
--- bchfcnet.gms(1028) 4 Mb
--- GDXin=C:\Users\dekhi\Desktop\gamsworld\FCNetLib\test\points\k15x420.gdx
--- GDX File (execute_load) C:\Users\dekhi\Desktop\gamsworld\FCNetLib\test\points\k15x420.gdx
--- Generating MIP model master
--- bchfcnet.gms(1032) 4 Mb
---   436 rows  841 columns  2,521 non-zeroes
---   420 discrete-columns
--- Executing CPLEX (Solvelink=2): elapsed 0:00:00.121

IBM ILOG CPLEX   34.3.0 rac355f3 Released Feb 25, 2021 WEI x86 64bit/MS Window

--- GAMS/Cplex Link licensed for continuous and discrete problems.

Reading parameter(s) from "C:\Users\dekhi\Desktop\gamsworld\FCNetLib\test\cplex.op2"
>>  mipstart 1
Finished reading from "C:\Users\dekhi\Desktop\gamsworld\FCNetLib\test\cplex.op2"

--- Space for names approximately 0.03 Mb
--- Use option 'names no' to turn use of names off
--- GMO memory 0.65 Mb (peak 0.65 Mb)
--- Dictionary memory 0.00 Mb
--- Cplex 20.1.0.0 link memory 0.02 Mb (peak 0.09 Mb)
--- Starting Cplex

Version identifier: 20.1.0.0 | 2020-11-10 | 9bedb6d68
CPXPARAM_Threads                                 1
CPXPARAM_MIP_Display                             4
CPXPARAM_TimeLimit                               3600
CPXPARAM_MIP_Tolerances_AbsMIPGap                0
CPXPARAM_MIP_Tolerances_MIPGap                   0
Generic callback                                 0x50
Processing 1 MIP starts.
MIP start 'm1' defined solution with objective 819.0000.
1 of 1 MIP starts provided solutions.
MIP start 'm1' defined initial solution with objective 819.0000.
Tried aggregator 1 time.
MIP Presolve eliminated 14 rows and 1 columns.
MIP Presolve added 28 rows and 0 columns.
Reduced MIP has 449 rows, 840 columns, and 1708 nonzeros.
Reduced MIP has 420 binaries, 0 generals, 0 SOSs, and 0 indicators.
Presolve time = 0.00 sec. (2.50 ticks)
Probing time = 0.00 sec. (0.09 ticks)
Tried aggregator 1 time.
Detecting symmetries...
Reduced MIP has 449 rows, 840 columns, and 1708 nonzeros.
Reduced MIP has 420 binaries, 0 generals, 0 SOSs, and 0 indicators.
Presolve time = 0.00 sec. (2.62 ticks)
Probing time = 0.00 sec. (0.09 ticks)
MIP emphasis: balance optimality and feasibility.
MIP search method: dynamic search.
Parallel mode: none, using 1 thread.
Tried aggregator 1 time.
LP Presolve eliminated 406 rows and 406 columns.
Aggregator did 14 substitutions.
Reduced LP has 29 rows, 420 columns, and 868 nonzeros.
Presolve time = 0.00 sec. (0.46 ticks)

Iteration log . . .
Iteration:     1   Dual objective     =           129.000000
Initializing dual steep norms . . .
Root relaxation solution time = 0.00 sec. (0.79 ticks)

        Nodes                                         Cuts/
   Node  Left     Objective  IInf  Best Integer    Best Bound    ItCnt     Gap

*     0+    0                          819.0000        0.0000           100.00%
Found incumbent of value 819.000000 after 0.02 sec. (7.29 ticks)
      0     0      350.0800    14      819.0000      350.0800       14   57.26%
      0     0      683.8057    24      819.0000      Cuts: 54       56   16.51%
      0     0      710.0475    28      819.0000      Cuts: 52       76   13.30%
      0     0      743.8901    37      819.0000      Cuts: 42      100    9.17%
      0     0      755.2705    33      819.0000      Cuts: 48      124    7.78%
      0     0      758.5270    36      819.0000      Cuts: 36      156    7.38%
Detecting symmetries...
      0     0      765.5238    31      819.0000      Cuts: 51      187    6.53%
      0     0      770.3960    37      819.0000      Cuts: 39      213    5.93%
      0     0      773.9270    36      819.0000      Cuts: 41      247    5.50%
      0     0      778.4168    40      819.0000      Cuts: 40      276    4.96%
      0     0      782.2797    40      819.0000      Cuts: 47      304    4.48%
      0     0      784.8085    48      819.0000      Cuts: 44      342    4.17%
      0     0      788.5433    41      819.0000      Cuts: 34      386    3.72%
      0     0      791.2406    40      819.0000      Cuts: 42      424    3.39%
      0     0      792.2304    47      819.0000      Cuts: 37      450    3.27%
      0     0      793.5043    41      819.0000      Cuts: 26      476    3.11%
      0     0      794.2674    35      819.0000      Cuts: 20      497    3.02%
      0     0      794.8084    43      819.0000      Cuts: 20      525    2.95%
      0     0      796.7842    41      819.0000      Cuts: 32      561    2.71%
      0     0      797.7633    39      819.0000      Cuts: 21      594    2.59%
      0     0      798.9905    42      819.0000      Cuts: 25      635    2.44%
      0     0      799.9854    42      819.0000      Cuts: 29      661    2.32%
      0     0      800.5615    43      819.0000      Cuts: 25      689    2.25%
      0     0      801.9774    36      819.0000      Cuts: 23      727    2.08%
      0     0      802.4686    44      819.0000      Cuts: 21      744    2.02%
      0     0      803.1180    38      819.0000      Cuts: 21      771    1.94%
      0     0      803.4476    39      819.0000      Cuts: 16      790    1.90%
      0     0      803.7505    38      819.0000      Cuts: 13      812    1.86%
      0     0      803.8788    39      819.0000       Cuts: 9      826    1.85%
      0     0      804.9282    37      819.0000      Cuts: 30      842    1.72%
      0     0      805.3107    37      819.0000      Cuts: 29      866    1.67%
      0     0      805.6546    38      819.0000      Cuts: 20      885    1.63%
      0     0      806.5727    40      819.0000      Cuts: 27      906    1.52%
      0     0      806.9413    32      819.0000      Cuts: 20      924    1.47%
      0     0      807.6158    34      819.0000   MIRcuts: 15      944    1.39%
      0     0      808.1636    38      819.0000      Cuts: 21      960    1.32%
      0     0      808.4541    41      819.0000      Cuts: 20      978    1.29%
Detecting symmetries...
      0     2      808.4541    41      819.0000      808.4589      978    1.29%
Elapsed time = 0.70 sec. (678.85 ticks, tree = 0.01 MB, solutions = 1)
*    10     2      integral     0      819.0000      818.0157     1268    0.12%
Found incumbent of value 819.000000 after 0.72 sec. (703.18 ticks)

Cover cuts applied:  8
Implied bound cuts applied:  2
Flow cuts applied:  39
Mixed integer rounding cuts applied:  76
Flow path cuts applied:  2
Multi commodity flow cuts applied:  2
Gomory fractional cuts applied:  7

Root node processing (before b&c):
  Real time             =    0.70 sec. (678.83 ticks)
Sequential b&c:
  Real time             =    0.02 sec. (28.40 ticks)
                          ------------
Total (root+branch&cut) =    0.72 sec. (707.23 ticks)

--- MIP status (101): integer optimal solution.
--- Cplex Time: 0.72sec (det. 707.23 ticks)

--- Fixing integer variables and solving final LP...

Version identifier: 20.1.0.0 | 2020-11-10 | 9bedb6d68
CPXPARAM_Advance                                 2
CPXPARAM_Threads                                 1
CPXPARAM_MIP_Display                             4
CPXPARAM_TimeLimit                               3600
CPXPARAM_MIP_Tolerances_AbsMIPGap                0
CPXPARAM_MIP_Tolerances_MIPGap                   0
Tried aggregator 1 time.
LP Presolve eliminated 435 rows and 841 columns.
All rows and columns eliminated.
Presolve time = 0.00 sec. (0.29 ticks)

--- Fixed MIP status (1): optimal.
--- Cplex Time: 0.00sec (det. 0.49 ticks)


Proven optimal solution
MIP Solution:          819.000000    (1283 iterations, 13 nodes)
Final Solve:           819.000000    (0 iterations)

Best possible:         819.000000
Absolute gap:            0.000000
Relative gap:            0.000000

--- Reading solution for model master
*** Status: Normal completion
--- Job bchfcnet.gms Stop 02/08/22 17:06:56 elapsed 0:00:00.886
